c colouring generated by benchmark framework
p edge 225 5180
v 1 6
v 2 2
v 3 5
v 4 16
v 5 14
v 6 17
v 7 7
v 8 4
v 9 12
v 10 3
v 11 18
v 12 0
v 13 9
v 14 10
v 15 8
v 16 10
v 17 3
v 18 4
v 19 15
v 20 12
v 21 11
v 22 9
v 23 16
v 24 1
v 25 2
v 26 6
v 27 17
v 28 18
v 29 14
v 30 19
v 31 2
v 32 17
v 33 0
v 34 1
v 35 16
v 36 15
v 37 13
v 38 5
v 39 8
v 40 9
v 41 14
v 42 12
v 43 11
v 44 3
v 45 7
v 46 11
v 47 1
v 48 8
v 49 4
v 50 5
v 51 3
v 52 0
v 53 15
v 54 10
v 55 6
v 56 7
v 57 13
v 58 14
v 59 19
v 60 12
v 61 12
v 62 16
v 63 15
v 64 14
v 65 9
v 66 8
v 67 6
v 68 2
v 69 7
v 70 4
v 71 3
v 72 5
v 73 1
v 74 11
v 75 0
v 76 14
v 77 18
v 78 19
v 79 7
v 80 11
v 81 12
v 82 3
v 83 1
v 84 6
v 85 5
v 86 0
v 87 2
v 88 13
v 89 15
v 90 9
v 91 17
v 92 10
v 93 14
v 94 13
v 95 4
v 96 7
v 97 2
v 98 19
v 99 0
v 100 1
v 101 8
v 102 15
v 103 12
v 104 6
v 105 11
v 106 7
v 107 6
v 108 2
v 109 0
v 110 1
v 111 13
v 112 15
v 113 17
v 114 16
v 115 12
v 116 5
v 117 10
v 118 8
v 119 4
v 120 3
v 121 8
v 122 19
v 123 1
v 124 5
v 125 10
v 126 0
v 127 12
v 128 13
v 129 11
v 130 14
v 131 4
v 132 3
v 133 2
v 134 16
v 135 17
v 136 9
v 137 7
v 138 13
v 139 11
v 140 3
v 141 1
v 142 17
v 143 0
v 144 2
v 145 19
v 146 15
v 147 8
v 148 4
v 149 12
v 150 18
v 151 19
v 152 8
v 153 12
v 154 17
v 155 2
v 156 9
v 157 4
v 158 3
v 159 5
v 160 0
v 161 1
v 162 11
v 163 10
v 164 7
v 165 16
v 166 16
v 167 15
v 168 11
v 169 9
v 170 8
v 171 5
v 172 1
v 173 6
v 174 18
v 175 10
v 176 12
v 177 14
v 178 0
v 179 2
v 180 13
v 181 0
v 182 9
v 183 6
v 184 12
v 185 13
v 186 10
v 187 8
v 188 11
v 189 3
v 190 7
v 191 16
v 192 1
v 193 5
v 194 17
v 195 14
v 196 1
v 197 4
v 198 18
v 199 10
v 200 0
v 201 14
v 202 5
v 203 7
v 204 13
v 205 15
v 206 2
v 207 9
v 208 3
v 209 8
v 210 6
v 211 15
v 212 11
v 213 3
v 214 8
v 215 7
v 216 2
v 217 19
v 218 14
v 219 9
v 220 17
v 221 13
v 222 4
v 223 6
v 224 5
v 225 10
